p cnf 17 34
a 3 13 0
e 1 2 4 5 6 7 8 9 10 11 12 14 15 16 17 0
1 -2 -3 0
-1 2 -3 0
1 2 3 0
-1 -2 3 0
6 4 0
6 -5 0
-4 5 -6 0
-3 6 -7 0
3 -6 -7 0
-3 -6 7 0
3 6 7 0
-9 -5 0
-9 -8 0
5 8 9 0
7 9 -10 0
-7 -9 -10 0
7 -9 10 0
-7 9 10 0
-12 -8 0
-12 -11 0
8 11 12 0
15 -13 0
15 -14 0
13 14 -15 0
16 12 0
16 -15 0
-12 15 -16 0
17 10 0
17 16 0
-10 -16 -17 0
-16 -15 3 -5 14 -2 0
8 -3 14 -10 9 4 13 0
-3 8 -17 -6 0
17 0
